db/data/28492000421864158087227321071159423544.z3.out
sat
-------------------
.696260888
